NAME 
ROWS
 N  OBJ
 G  R0      
 G  R1      
 G  R2      
 G  R3      
 G  R4      
 G  R5      
 G  R6      
 G  R7      
 G  R8      
 G  R9      
 G  R10     
 G  R11     
 G  R12     
 G  R13     
 G  R14     
 G  R15     
 G  R16     
 G  R17     
 G  R18     
 G  R19     
 G  R20     
 G  R21     
 G  R22     
 G  R23     
 G  R24     
 G  R25     
 G  R26     
 G  R27     
 G  R28     
 G  R29     
 G  R30     
 G  R31     
 G  R32     
 G  R33     
 G  R34     
 G  R35     
COLUMNS
    x0        OBJ       1
    x0        R0        1
    x0        R4        1
    x0        R5        1
    x0        R7        1
    x0        R8        1
    x0        R10       1
    x0        R11       1
    x0        R12       1
    x0        R15       1
    x0        R19       1
    x0        R20       1
    x0        R21       1
    x0        R24       1
    x0        R27       1
    x1        OBJ       1
    x1        R1        1
    x1        R3        1
    x1        R5        1
    x1        R6        1
    x1        R8        1
    x1        R9        1
    x1        R11       1
    x1        R13       1
    x1        R16       1
    x1        R18       1
    x1        R20       1
    x1        R22       1
    x1        R25       1
    x1        R28       1
    x2        OBJ       1
    x2        R2        1
    x2        R3        1
    x2        R4        1
    x2        R6        1
    x2        R7        1
    x2        R9        1
    x2        R10       1
    x2        R14       1
    x2        R17       1
    x2        R18       1
    x2        R19       1
    x2        R23       1
    x2        R26       1
    x2        R29       1
    x3        OBJ       1
    x3        R1        1
    x3        R2        1
    x3        R3        1
    x3        R7        1
    x3        R8        1
    x3        R9        1
    x3        R13       1
    x3        R14       1
    x3        R15       1
    x3        R18       1
    x3        R22       1
    x3        R23       1
    x3        R24       1
    x3        R30       1
    x4        OBJ       1
    x4        R0        1
    x4        R2        1
    x4        R4        1
    x4        R6        1
    x4        R8        1
    x4        R10       1
    x4        R12       1
    x4        R14       1
    x4        R16       1
    x4        R19       1
    x4        R21       1
    x4        R23       1
    x4        R25       1
    x4        R31       1
    x5        OBJ       1
    x5        R0        1
    x5        R1        1
    x5        R5        1
    x5        R6        1
    x5        R7        1
    x5        R11       1
    x5        R12       1
    x5        R13       1
    x5        R17       1
    x5        R20       1
    x5        R21       1
    x5        R22       1
    x5        R26       1
    x5        R32       1
    x6        OBJ       1
    x6        R1        1
    x6        R2        1
    x6        R4        1
    x6        R5        1
    x6        R6        1
    x6        R9        1
    x6        R12       1
    x6        R16       1
    x6        R17       1
    x6        R18       1
    x6        R21       1
    x6        R25       1
    x6        R26       1
    x6        R33       1
    x7        OBJ       1
    x7        R0        1
    x7        R2        1
    x7        R3        1
    x7        R5        1
    x7        R7        1
    x7        R10       1
    x7        R13       1
    x7        R15       1
    x7        R17       1
    x7        R19       1
    x7        R22       1
    x7        R24       1
    x7        R26       1
    x7        R34       1
    x8        OBJ       1
    x8        R0        1
    x8        R1        1
    x8        R3        1
    x8        R4        1
    x8        R8        1
    x8        R11       1
    x8        R14       1
    x8        R15       1
    x8        R16       1
    x8        R20       1
    x8        R23       1
    x8        R24       1
    x8        R25       1
    x8        R35       1
    x9        OBJ       1
    x9        R1        1
    x9        R2        1
    x9        R3        1
    x9        R6        1
    x9        R9        1
    x9        R13       1
    x9        R14       1
    x9        R16       1
    x9        R17       1
    x9        R18       1
    x9        R28       1
    x9        R29       1
    x9        R30       1
    x9        R33       1
    x10       OBJ       1
    x10       R0        1
    x10       R2        1
    x10       R4        1
    x10       R7        1
    x10       R10       1
    x10       R12       1
    x10       R14       1
    x10       R15       1
    x10       R17       1
    x10       R19       1
    x10       R27       1
    x10       R29       1
    x10       R31       1
    x10       R34       1
    x11       OBJ       1
    x11       R0        1
    x11       R1        1
    x11       R5        1
    x11       R8        1
    x11       R11       1
    x11       R12       1
    x11       R13       1
    x11       R15       1
    x11       R16       1
    x11       R20       1
    x11       R27       1
    x11       R28       1
    x11       R32       1
    x11       R35       1
    x12       OBJ       1
    x12       R0        1
    x12       R4        1
    x12       R5        1
    x12       R6        1
    x12       R10       1
    x12       R11       1
    x12       R12       1
    x12       R16       1
    x12       R17       1
    x12       R21       1
    x12       R27       1
    x12       R31       1
    x12       R32       1
    x12       R33       1
    x13       OBJ       1
    x13       R1        1
    x13       R3        1
    x13       R5        1
    x13       R7        1
    x13       R9        1
    x13       R11       1
    x13       R13       1
    x13       R15       1
    x13       R17       1
    x13       R22       1
    x13       R28       1
    x13       R30       1
    x13       R32       1
    x13       R34       1
    x14       OBJ       1
    x14       R2        1
    x14       R3        1
    x14       R4        1
    x14       R8        1
    x14       R9        1
    x14       R10       1
    x14       R14       1
    x14       R15       1
    x14       R16       1
    x14       R23       1
    x14       R29       1
    x14       R30       1
    x14       R31       1
    x14       R35       1
    x15       OBJ       1
    x15       R0        1
    x15       R3        1
    x15       R7        1
    x15       R8        1
    x15       R10       1
    x15       R11       1
    x15       R13       1
    x15       R14       1
    x15       R15       1
    x15       R24       1
    x15       R27       1
    x15       R30       1
    x15       R34       1
    x15       R35       1
    x16       OBJ       1
    x16       R1        1
    x16       R4        1
    x16       R6        1
    x16       R8        1
    x16       R9        1
    x16       R11       1
    x16       R12       1
    x16       R14       1
    x16       R16       1
    x16       R25       1
    x16       R28       1
    x16       R31       1
    x16       R33       1
    x16       R35       1
    x17       OBJ       1
    x17       R2        1
    x17       R5        1
    x17       R6        1
    x17       R7        1
    x17       R9        1
    x17       R10       1
    x17       R12       1
    x17       R13       1
    x17       R17       1
    x17       R26       1
    x17       R29       1
    x17       R32       1
    x17       R33       1
    x17       R34       1
    x18       OBJ       1
    x18       R1        1
    x18       R2        1
    x18       R3        1
    x18       R6        1
    x18       R9        1
    x18       R18       1
    x18       R22       1
    x18       R23       1
    x18       R25       1
    x18       R26       1
    x18       R28       1
    x18       R29       1
    x18       R30       1
    x18       R33       1
    x19       OBJ       1
    x19       R0        1
    x19       R2        1
    x19       R4        1
    x19       R7        1
    x19       R10       1
    x19       R19       1
    x19       R21       1
    x19       R23       1
    x19       R24       1
    x19       R26       1
    x19       R27       1
    x19       R29       1
    x19       R31       1
    x19       R34       1
    x20       OBJ       1
    x20       R0        1
    x20       R1        1
    x20       R5        1
    x20       R8        1
    x20       R11       1
    x20       R20       1
    x20       R21       1
    x20       R22       1
    x20       R24       1
    x20       R25       1
    x20       R27       1
    x20       R28       1
    x20       R32       1
    x20       R35       1
    x21       OBJ       1
    x21       R0        1
    x21       R4        1
    x21       R5        1
    x21       R6        1
    x21       R12       1
    x21       R19       1
    x21       R20       1
    x21       R21       1
    x21       R25       1
    x21       R26       1
    x21       R27       1
    x21       R31       1
    x21       R32       1
    x21       R33       1
    x22       OBJ       1
    x22       R1        1
    x22       R3        1
    x22       R5        1
    x22       R7        1
    x22       R13       1
    x22       R18       1
    x22       R20       1
    x22       R22       1
    x22       R24       1
    x22       R26       1
    x22       R28       1
    x22       R30       1
    x22       R32       1
    x22       R34       1
    x23       OBJ       1
    x23       R2        1
    x23       R3        1
    x23       R4        1
    x23       R8        1
    x23       R14       1
    x23       R18       1
    x23       R19       1
    x23       R23       1
    x23       R24       1
    x23       R25       1
    x23       R29       1
    x23       R30       1
    x23       R31       1
    x23       R35       1
    x24       OBJ       1
    x24       R0        1
    x24       R3        1
    x24       R7        1
    x24       R8        1
    x24       R15       1
    x24       R19       1
    x24       R20       1
    x24       R22       1
    x24       R23       1
    x24       R24       1
    x24       R27       1
    x24       R30       1
    x24       R34       1
    x24       R35       1
    x25       OBJ       1
    x25       R1        1
    x25       R4        1
    x25       R6        1
    x25       R8        1
    x25       R16       1
    x25       R18       1
    x25       R20       1
    x25       R21       1
    x25       R23       1
    x25       R25       1
    x25       R28       1
    x25       R31       1
    x25       R33       1
    x25       R35       1
    x26       OBJ       1
    x26       R2        1
    x26       R5        1
    x26       R6        1
    x26       R7        1
    x26       R17       1
    x26       R18       1
    x26       R19       1
    x26       R21       1
    x26       R22       1
    x26       R26       1
    x26       R29       1
    x26       R32       1
    x26       R33       1
    x26       R34       1
    x27       OBJ       1
    x27       R0        1
    x27       R10       1
    x27       R11       1
    x27       R12       1
    x27       R15       1
    x27       R19       1
    x27       R20       1
    x27       R21       1
    x27       R24       1
    x27       R27       1
    x27       R31       1
    x27       R32       1
    x27       R34       1
    x27       R35       1
    x28       OBJ       1
    x28       R1        1
    x28       R9        1
    x28       R11       1
    x28       R13       1
    x28       R16       1
    x28       R18       1
    x28       R20       1
    x28       R22       1
    x28       R25       1
    x28       R28       1
    x28       R30       1
    x28       R32       1
    x28       R33       1
    x28       R35       1
    x29       OBJ       1
    x29       R2        1
    x29       R9        1
    x29       R10       1
    x29       R14       1
    x29       R17       1
    x29       R18       1
    x29       R19       1
    x29       R23       1
    x29       R26       1
    x29       R29       1
    x29       R30       1
    x29       R31       1
    x29       R33       1
    x29       R34       1
    x30       OBJ       1
    x30       R3        1
    x30       R9        1
    x30       R13       1
    x30       R14       1
    x30       R15       1
    x30       R18       1
    x30       R22       1
    x30       R23       1
    x30       R24       1
    x30       R28       1
    x30       R29       1
    x30       R30       1
    x30       R34       1
    x30       R35       1
    x31       OBJ       1
    x31       R4        1
    x31       R10       1
    x31       R12       1
    x31       R14       1
    x31       R16       1
    x31       R19       1
    x31       R21       1
    x31       R23       1
    x31       R25       1
    x31       R27       1
    x31       R29       1
    x31       R31       1
    x31       R33       1
    x31       R35       1
    x32       OBJ       1
    x32       R5        1
    x32       R11       1
    x32       R12       1
    x32       R13       1
    x32       R17       1
    x32       R20       1
    x32       R21       1
    x32       R22       1
    x32       R26       1
    x32       R27       1
    x32       R28       1
    x32       R32       1
    x32       R33       1
    x32       R34       1
    x33       OBJ       1
    x33       R6        1
    x33       R9        1
    x33       R12       1
    x33       R16       1
    x33       R17       1
    x33       R18       1
    x33       R21       1
    x33       R25       1
    x33       R26       1
    x33       R28       1
    x33       R29       1
    x33       R31       1
    x33       R32       1
    x33       R33       1
    x34       OBJ       1
    x34       R7        1
    x34       R10       1
    x34       R13       1
    x34       R15       1
    x34       R17       1
    x34       R19       1
    x34       R22       1
    x34       R24       1
    x34       R26       1
    x34       R27       1
    x34       R29       1
    x34       R30       1
    x34       R32       1
    x34       R34       1
    x35       OBJ       1
    x35       R8        1
    x35       R11       1
    x35       R14       1
    x35       R15       1
    x35       R16       1
    x35       R20       1
    x35       R23       1
    x35       R24       1
    x35       R25       1
    x35       R27       1
    x35       R28       1
    x35       R30       1
    x35       R31       1
    x35       R35       1
RHS
    RHS1      R0        1
    RHS1      R1        1
    RHS1      R2        1
    RHS1      R3        1
    RHS1      R4        1
    RHS1      R5        1
    RHS1      R6        1
    RHS1      R7        1
    RHS1      R8        1
    RHS1      R9        1
    RHS1      R10       1
    RHS1      R11       1
    RHS1      R12       1
    RHS1      R13       1
    RHS1      R14       1
    RHS1      R15       1
    RHS1      R16       1
    RHS1      R17       1
    RHS1      R18       1
    RHS1      R19       1
    RHS1      R20       1
    RHS1      R21       1
    RHS1      R22       1
    RHS1      R23       1
    RHS1      R24       1
    RHS1      R25       1
    RHS1      R26       1
    RHS1      R27       1
    RHS1      R28       1
    RHS1      R29       1
    RHS1      R30       1
    RHS1      R31       1
    RHS1      R32       1
    RHS1      R33       1
    RHS1      R34       1
    RHS1      R35       1
BOUNDS
 UP BND1      x0        1
 UP BND1      x1        1
 UP BND1      x2        1
 UP BND1      x3        1
 UP BND1      x4        1
 UP BND1      x5        1
 UP BND1      x6        1
 UP BND1      x7        1
 UP BND1      x8        1
 UP BND1      x9        1
 UP BND1      x10       1
 UP BND1      x11       1
 UP BND1      x12       1
 UP BND1      x13       1
 UP BND1      x14       1
 UP BND1      x15       1
 UP BND1      x16       1
 UP BND1      x17       1
 UP BND1      x18       1
 UP BND1      x19       1
 UP BND1      x20       1
 UP BND1      x21       1
 UP BND1      x22       1
 UP BND1      x23       1
 UP BND1      x24       1
 UP BND1      x25       1
 UP BND1      x26       1
 UP BND1      x27       1
 UP BND1      x28       1
 UP BND1      x29       1
 UP BND1      x30       1
 UP BND1      x31       1
 UP BND1      x32       1
 UP BND1      x33       1
 UP BND1      x34       1
 UP BND1      x35       1
ENDATA
